
  32    4
  10   10   10   10

   0   0   0   0   0   2 2 4 
   9  10  10  10  10   1 3 
   4  10  10  10  10   2 7 5 
   8  10  10  10  10   2 7 5 
   6  10  10  10  10   2 9 6 
   9  10  10  10  10   4 13 12 11 8 
   3  10  10  10  10   4 13 12 9 8 
   2  10  10  10  10   1 10 
  10  10  10  10  10   1 10 
   1  10  10  10  10   3 16 15 14 
   1  10  10  10  10   3 16 15 14 
   4  10  10  10  10   2 16 14 
   1  10  10  10  10   1 14 
   8  10  10  10  10   4 20 19 18 17 
   7  10  10  10  10   4 20 19 18 17 
   6  10  10  10  10   3 19 18 17 
  10  10  10  10  10   2 22 21 
   8  10  10  10  10   2 22 21 
   2  10  10  10  10   2 22 21 
   4  10  10  10  10   2 22 21 
   7  10  10  10  10   2 24 23 
   5  10  10  10  10   1 23 
   8  10  10  10  10   1 25 
   5  10  10  10  10   1 25 
   5  10  10  10  10   1 26 
   3  10  10  10  10   1 27 
   4  10  10  10  10   2 29 28 
   7  10  10  10  10   2 31 30 
   7  10  10  10  10   2 31 30 
   3  10  10  10  10   1 32
   2  10  10  10  10   1 32
   0   0   0   0   0   0 
